c application day graph
c author: 2018 Sam Wilson
c license: CC0
p tw 48 75
1 16
1 22
2 15
2 36
3 14
3 32
4 29
4 32
5 13
5 16
5 37
6 30
6 38
6 39
7 15
7 26
7 27
7 35
7 45
7 46
8 14
8 21
8 35
8 41
9 10
9 19
9 31
10 20
11 14
11 29
11 32
12 18
12 25
12 28
13 24
13 43
13 44
14 23
14 38
15 23
15 36
16 17
17 18
18 22
18 29
19 30
19 31
19 33
19 40
19 48
20 31
21 38
21 39
24 36
24 43
25 28
26 27
26 46
27 46
29 32
30 33
30 39
30 47
30 48
33 48
34 35
34 41
34 45
37 44
39 41
39 42
41 42
41 45
42 47
47 48
